Cars = 1..200;
Options = 1..5;
Classes = 1..21;
sequenceMinCapacity = [0, 0, 0, 0, 0];
sequenceMaxCapacity = [1, 2, 1, 2, 1];
sequenceSize = [2, 3, 3, 5, 5];
numOrdered = [26, 1, 10, 4, 1, 3, 3, 3, 9, 4, 8, 2, 59, 1, 3, 3, 32, 19, 1, 7, 1];
classHasOption = [|false, false, false, false,  true
                  |false,  true,  true, false,  true
                  |false,  true, false,  true, false
                  | true, false,  true, false, false
                  |false, false, false,  true,  true
                  |false,  true,  true, false, false
                  |false, false,  true, false,  true
                  | true,  true,  true, false, false
                  | true,  true, false, false, false
                  |false,  true,  true,  true, false
                  |false, false,  true,  true, false
                  | true,  true, false, false,  true
                  |false,  true, false, false, false
                  | true, false, false, false,  true
                  | true, false, false,  true, false
                  |false,  true, false, false,  true
                  | true, false, false, false, false
                  |false, false, false,  true, false
                  | true, false,  true,  true, false
                  |false, false,  true, false, false
                  | true,  true, false,  true, false|];
optionOrdering = [5, 1, 3, 2, 4];
